##------CONJUNTOS
set D := D1 D2 D3 D4;
set K := 1 2;

set I := F1 F2 F3 F4 F5 F6 F7 F8 F9 F10 F11 F12 F13 F14 F15 F16;

# F1 -> Excel 2298, Comuna 22
# F2 -> Excel 2299, Comuna 22
# F3 -> Excel 2296, Comuna 22
# F4 -> Excel 2297, Comuna 22
# F5 -> Excel 1596, Comuna 15
# F6 -> Excel 1501, Comuna 15
# F7 -> Excel 1502, Comuna 15
# F8 -> Excel 1503, Comuna 15
# F9 -> Excel 313, Comuna 3
# F10 -> Excel 306, Comuna 3
# F11 -> Excel 311, Comuna 3
# F12 -> Excel 309, Comuna 3
# F13 -> Excel 2098, Comuna 20
# F14 -> Excel 2007, Comuna 20
# F15 -> Excel 2003, Comuna 20
# F16 -> Excel 2099, Comuna 20

# Clústeres
set C := C1 C2 C3 C4;
set IC[C1] := F1 F2 F3 F4;
set IC[C2] := F5 F6 F7 F8;
set IC[C3] := F9 F10 F11 F12;
set IC[C4] := F13 F14 F15 F16;

# Número de vehículos por tipo y depósito
set R[D1,1] := V1 V2 V3 V4;
set R[D1,2] := K1 K2;
set R[D2,1] := V5 V6 V7 V8;
set R[D2,2] := K3;
set R[D3,1] := V9 V10 V11 V12;
set R[D3,2] := K4;
set R[D4,1] := V13 V14 V15 V16;
set R[D4,2] := K5 K6;

##------PARAMETROS GLOBALES
param Vel := 25;

##------CAPACIDAD DE VEHÍCULOS (agentes que pueden transportar)
param q :=
1 5
2 10
;

##------POLICÍAS DISPONIBLES en cada depósito
param h :=
D1 40
D2 30
D3 30
D4 40
;

##------VEHÍCULOS DISPONIBLES por tipo y depósito
param v:
	1	2 :=
D1	4	2
D2	4	1
D3	4	1
D4	4	2
;

##-----DISTANCIAS ENTRE NODOS [km]
param dist:
	F1	F2	F3	F4	F5	F6	F7	F8	F9	F10	F11	F12	F13	F14	F15	F16	D1	D2	D3	D4 :=
F1	0	1.26	4.73	2.99	6.51	8.22	8.85	8.79	11.81	10.45	11.45	10.6	7.16	7.61	7.97	8.22	10.46	15.62	6.87	11.0
F2	1.26	0	4.6	3.26	6.76	8.47	9.12	9.05	11.9	10.52	11.53	10.69	7.07	7.53	7.92	8.13	10.55	15.8	6.84	11.25
F3	4.73	4.6	0	4.95	10.07	11.75	12.32	12.32	15.53	14.15	15.14	14.34	10.22	10.72	11.26	11.26	14.2	19.39	10.23	14.53
F4	2.99	3.26	4.95	0	6.31	7.91	8.42	8.46	12.72	11.43	12.46	11.47	8.92	9.32	9.55	9.96	11.33	15.88	8.44	10.65
F5	6.51	6.76	10.07	6.31	0	2.66	3.32	3.23	8.28	7.27	8.22	7.05	7.81	7.88	7.55	8.45	6.93	10.57	6.72	5.44
F6	8.22	8.47	11.75	7.91	2.66	0	1.69	1.52	7.81	7.08	7.89	6.7	8.87	8.84	8.36	9.34	6.6	9.18	7.71	3.73
F7	8.85	9.12	12.32	8.42	3.32	1.69	0	1.33	8.12	7.5	8.26	7.07	9.58	9.54	9.03	10.03	6.98	8.96	8.42	3.17
F8	8.79	9.05	12.32	8.46	3.23	1.52	1.33	0	7.74	7.11	7.87	6.69	9.27	9.22	8.69	9.7	6.6	8.74	8.1	3.16
F9	11.81	11.9	15.53	12.72	8.28	7.81	8.12	7.74	0	2.34	1.57	2.21	7.53	7.08	6.24	7.03	2.35	6.47	6.77	7.69
F10	10.45	10.52	14.15	11.43	7.27	7.08	7.5	7.11	2.34	0	1.97	1.59	6.23	5.81	4.96	5.83	1.58	7.55	5.41	7.52
F11	11.45	11.53	15.14	12.46	8.22	7.89	8.26	7.87	1.57	1.97	0	2.14	6.96	6.5	5.66	6.43	2.25	7.1	6.25	8.02
F12	10.6	10.69	14.34	11.47	7.05	6.7	7.07	6.69	2.21	1.59	2.14	0	6.73	6.33	5.49	6.4	1.09	6.99	5.84	6.95
F13	7.16	7.07	10.22	8.92	7.81	8.87	9.58	9.27	7.53	6.23	6.96	6.73	0	1.47	2.26	2.01	6.63	12.77	2.12	10.83
F14	7.61	7.53	10.72	9.32	7.88	8.84	9.54	9.22	7.08	5.81	6.5	6.33	1.47	0	1.79	1.59	6.24	12.38	2.11	10.69
F15	7.97	7.92	11.26	9.55	7.55	8.36	9.03	8.69	6.24	4.96	5.66	5.49	2.26	1.79	0	1.99	5.4	11.54	2.06	10.04
F16	8.22	8.13	11.26	9.96	8.45	9.34	10.03	9.7	7.03	5.83	6.43	6.4	2.01	1.59	1.99	0	6.32	12.44	2.71	11.08
D1	10.46	10.55	14.2	11.33	6.93	6.6	6.98	6.6	2.35	1.58	2.25	1.09	6.63	6.24	5.4	6.32	0	7.09	5.73	6.9
D2	15.62	15.8	19.39	15.88	10.57	9.18	8.96	8.74	6.47	7.55	7.1	6.99	12.77	12.38	11.54	12.44	7.09	0	11.82	7.08
D3	6.87	6.84	10.23	8.44	6.72	7.71	8.42	8.1	6.77	5.41	6.25	5.84	2.12	2.11	2.06	2.71	5.73	11.82	0	9.66
D4	11.0	11.25	14.53	10.65	5.44	3.73	3.17	3.16	7.69	7.52	8.02	6.95	10.83	10.69	10.04	11.08	6.9	7.08	9.66	0
;

#### DEMANDA DE POLICÍAS (por nodo i)
param dem :=
F1 25
F2 125
F3 75
F4 125
F5 75
F6 75
F7 100
F8 125
F9 100
F10 50
F11 125
F12 25
F13 75
F14 125
F15 125
F16 125
;

#### DEMANDA DE VEHÍCULOS (por tipo)
param mu:
    1   2 :=
 F1  0  1
 F2  0  2
 F3  0  1
 F4  0  2
 F5  0  1
 F6  0  1
 F7  0  3
 F8  0  2
 F9  0  3
 F10  0  2
 F11  0  2
 F12  0  1
 F13  0  1
 F14  0  2
 F15  0  2
 F16  0  3
;

#### TIEMPOS DE SERVICIO [horas]
param s :=
F1 0.48
F2 2.18
F3 1.32
F4 1.77
F5 1.45
F6 1.11
F7 1.80
F8 2.38
F9 1.84
F10 0.71
F11 2.02
F12 0.40
F13 1.13
F14 2.12
F15 1.87
F16 1.88
;

#### VENTANAS DE TIEMPO [horas]
param alpha :=
F1 14
F2 12
F3 6
F4 12
F5 10
F6 9
F7 10
F8 10
F9 6
F10 6
F11 14
F12 7
F13 7
F14 12
F15 14
F16 8
;

param beta :=
F1 23
F2 22
F3 16
F4 21
F5 17
F6 14
F7 20
F8 16
F9 12
F10 16
F11 22
F12 17
F13 13
F14 21
F15 20
F16 13
;

#### PRIORIDAD DE LOS NODOS
param P :=
F1 0.168
F2 0.077
F3 0.073
F4 0.195
F5 0.729
F6 0.698
F7 0.619
F8 0.682
F9 0.328
F10 0.265
F11 0.374
F12 0.471
F13 0.329
F14 0.325
F15 0.523
F16 0.565
;

